!   File created by the GAMESS Input Deck Generator Plugin for Avogadro
 $BASIS GBASIS=N31 NGAUSS=6 NDFUNC=1 $END
 $CONTRL SCFTYP=RHF RUNTYP=ENERGY MAXIT=50 LOCAL=BOYS $END

 $DATA 
Title
C1
C     6.0    -5.19931     1.52844    -0.20623
C     6.0    -5.19269     0.13625    -0.19060
C     6.0    -4.00376     2.25398    -0.14737
C     6.0    -2.75468     1.55453    -0.09679
C     6.0    -2.76956     0.13836    -0.09119
C     6.0    -3.98713    -0.55161    -0.13241
C     6.0    -1.48114     2.17909    -0.02372
C     6.0    -0.27431     1.45430     0.02601
C     6.0    -0.31150     0.04775     0.01379
C     6.0    -1.56653    -0.58597    -0.04151
H     1.0    -1.59761    -1.67535    -0.04329
H     1.0    -1.41039     3.26314     0.01417
C     6.0     0.96748     2.11078     0.09037
C     6.0     2.16101     1.38868     0.13828
C     6.0     2.13293    -0.00219     0.12433
C     6.0     0.90628    -0.66295     0.06341
H     1.0     1.01432     3.19806     0.10239
H     1.0     3.11106     1.91479     0.18649
H     1.0     3.06854    -0.55102     0.16226
H     1.0    -4.00506    -1.64002    -0.12846
H     1.0    -6.12904    -0.41360    -0.24486
H     1.0    -6.16049     2.01229    -0.32577
N     7.0    -3.99483     3.66610    -0.21853
O     8.0     0.87989    -2.03427     0.05237
C     6.0    -4.93271     4.61918     0.04385
H     1.0    -3.14217     4.09530    -0.55283
C     6.0    -6.20773     4.28896     0.76661
H     1.0    -6.98505     4.01831     0.04872
H     1.0    -6.54018     5.17686     1.31468
H     1.0    -6.05750     3.49853     1.50520
O     8.0    -4.68637     5.78482    -0.27944
H     1.0     1.79185    -2.36492     0.09128
 $END
